20
4 0 3
4 2 5
4 3 8
5 2 7
5 3 4
5 4 5
6 0 7
6 2 4
6 3 1
7 1 5
7 3 10
8 4 9
8 5 6
8 7 10
9 0 2
9 5 7
9 8 9
10 0 8
10 1 9
10 3 9
10 4 7
10 9 10
11 1 6
11 2 6
11 3 1
11 4 1
11 5 10
11 8 8
12 1 5
12 4 9
12 7 7
12 8 8
12 10 7
13 2 4
13 5 8
13 8 1
13 11 8
13 12 2
14 2 5
14 6 1
14 8 5
14 10 6
15 3 10
15 7 2
15 8 9
15 9 3
15 10 3
15 11 4
15 12 8
15 13 8
16 4 7
16 5 6
16 6 3
16 11 10
16 12 9
16 13 1
16 14 3
17 2 10
17 3 2
17 4 1
17 5 5
17 10 3
17 13 3
17 14 8
18 0 8
18 3 1
18 6 7
18 7 8
18 8 10
18 9 7
18 10 9
18 14 7
18 15 9
18 16 9
18 17 3
19 2 10
19 4 7
19 7 6
19 9 6
19 10 1
19 11 9
19 12 10
19 13 4
19 14 1
19 15 10
19 18 1
